333
189
206
223
296
243
234
276
270
348
256
191
204
301
308
224
255
220
334
295
212
238
220
184
270
149
178
194
255
241
241
218
152
253
205
242
203
193
253
248
218
177
221
258
182
229
214
382
309
211
232
225
260
296
220
222
255
235
219
263
241
198
287
252
289
202
259
156
201
256
223
251
250
294
213
271
253
166
230
213
240
304
233
265
315
278
144
314
255
232
238
230
270
278
287
224
237
307
261
241
